50, 10471
549, 650
132, 233
712, 812
303, 405
939, 1037
193, 293
762, 863
166, 266
967, 1067
874, 973
108, 209
650, 748
219, 319
512, 613
851, 953
155, 257
218, 316
74, 172
64, 163
499, 601
164, 264
129, 230
699, 799
292, 392
340, 442
338, 437
842, 942
272, 373
649, 751
936, 1038
572, 672
283, 381
139, 237
653, 751
176, 274
402, 503
816, 915
783, 881
278, 380
367, 468
290, 390
292, 394
497, 595
117, 217
116, 216
147, 247
330, 429
535, 636
320, 422
431, 533
